<number of tasks>
250

<cycle time>
1000

<order strength>
0.897


<task times>
1 149
2 273
3 202
4 77
5 70
6 111
7 77
8 174
9 20
10 88
11 234
12 22
13 42
14 95
15 56
16 316
17 141
18 107
19 170
20 73
21 263
22 153
23 114
24 78
25 193
26 256
27 43
28 73
29 34
30 158
31 27
32 152
33 70
34 34
35 274
36 176
37 91
38 114
39 127
40 66
41 52
42 189
43 149
44 70
45 97
46 37
47 50
48 69
49 188
50 143
51 67
52 171
53 196
54 168
55 74
56 28
57 106
58 63
59 226
60 139
61 164
62 137
63 91
64 70
65 54
66 286
67 43
68 81
69 197
70 87
71 203
72 241
73 29
74 140
75 124
76 231
77 56
78 257
79 253
80 87
81 256
82 96
83 53
84 98
85 175
86 101
87 225
88 233
89 204
90 190
91 79
92 330
93 104
94 142
95 130
96 60
97 312
98 225
99 177
100 75
101 47
102 90
103 288
104 170
105 102
106 152
107 179
108 116
109 105
110 77
111 249
112 99
113 141
114 199
115 43
116 167
117 119
118 47
119 45
120 104
121 202
122 171
123 112
124 156
125 69
126 85
127 82
128 100
129 242
130 73
131 102
132 102
133 213
134 110
135 171
136 274
137 143
138 172
139 73
140 196
141 28
142 123
143 32
144 250
145 78
146 166
147 21
148 320
149 74
150 86
151 259
152 176
153 153
154 127
155 52
156 212
157 131
158 29
159 153
160 70
161 216
162 47
163 260
164 72
165 221
166 102
167 161
168 36
169 189
170 54
171 219
172 216
173 189
174 345
175 67
176 64
177 66
178 264
179 172
180 38
181 21
182 188
183 92
184 187
185 158
186 146
187 127
188 56
189 70
190 144
191 102
192 52
193 29
194 138
195 237
196 243
197 97
198 147
199 161
200 172
201 23
202 64
203 164
204 28
205 83
206 216
207 107
208 113
209 24
210 272
211 32
212 184
213 158
214 191
215 168
216 124
217 133
218 23
219 338
220 228
221 180
222 118
223 114
224 111
225 136
226 240
227 154
228 51
229 127
230 41
231 215
232 113
233 173
234 106
235 114
236 185
237 229
238 113
239 69
240 53
241 81
242 89
243 60
244 76
245 358
246 130
247 41
248 160
249 205
250 97

<precedence relations>
1,89
1,90
1,91
1,92
2,5
2,6
2,7
2,8
3,5
3,6
3,7
3,8
4,5
4,6
4,7
4,8
5,9
5,10
5,11
5,12
6,9
6,10
6,11
6,12
7,9
7,10
7,11
7,12
8,9
8,10
8,11
8,12
9,13
9,14
9,15
9,16
9,17
10,13
10,14
10,15
10,16
10,17
11,13
11,14
11,15
11,16
11,17
12,13
12,14
12,15
12,16
12,17
13,18
13,19
13,20
14,18
14,19
14,23
15,18
15,19
15,20
15,21
15,22
15,23
16,18
16,19
16,20
16,21
16,22
16,23
17,18
17,19
17,20
17,21
17,22
17,23
18,24
18,25
18,26
18,27
18,28
18,29
18,30
19,25
19,26
19,30
20,24
20,25
20,26
20,27
20,28
20,29
20,30
21,24
21,25
21,26
21,30
22,24
22,25
22,27
22,28
22,29
22,30
23,26
24,31
24,32
24,33
24,34
25,31
25,32
25,33
25,34
26,31
26,32
26,33
27,31
27,32
27,33
27,34
28,31
28,33
29,40
30,123
30,129
31,35
31,36
31,37
31,38
32,35
32,36
32,37
32,38
33,35
33,36
33,37
33,39
34,35
34,38
34,39
35,40
35,41
35,42
36,40
36,41
36,42
37,40
37,41
37,42
38,40
38,41
38,42
39,40
39,41
39,42
40,43
40,44
40,45
40,46
40,47
40,48
41,44
41,45
41,46
41,47
41,48
42,43
42,44
42,45
42,46
42,47
42,48
43,49
43,50
44,49
44,50
45,49
45,50
46,49
46,50
47,49
48,49
48,50
49,51
49,52
49,53
49,54
49,55
49,56
50,51
50,54
50,55
50,56
51,57
51,58
51,59
51,60
51,61
52,57
52,60
53,57
53,58
53,59
53,60
53,61
54,57
54,58
54,59
54,60
54,61
55,57
55,58
55,59
55,60
55,61
56,57
56,58
56,59
56,60
56,61
57,62
57,63
57,64
58,62
58,63
58,64
59,62
59,63
59,64
60,62
60,63
60,64
61,62
61,63
61,64
62,65
62,66
62,67
62,68
63,65
63,66
63,67
63,68
64,65
64,66
64,67
64,68
65,69
65,70
65,71
65,72
65,73
66,69
66,75
67,71
67,72
67,74
68,69
68,70
68,71
68,74
68,75
69,76
70,76
70,77
70,78
70,79
71,206
72,77
73,76
73,77
73,78
73,79
74,76
74,77
74,78
74,79
75,76
75,77
75,78
76,82
76,84
77,80
77,81
77,84
77,85
78,80
78,81
78,82
78,83
78,84
78,85
79,80
79,81
79,82
79,83
79,84
79,85
80,86
80,87
80,88
80,89
81,86
81,88
82,86
83,86
83,87
83,89
84,86
84,87
85,87
86,90
86,91
87,92
88,90
88,92
89,102
90,93
90,94
90,97
91,93
91,95
91,96
91,97
92,93
92,94
92,96
92,97
93,98
93,99
93,112
94,98
94,99
94,100
94,101
95,98
95,99
95,100
95,101
96,98
96,99
96,100
97,100
98,102
98,103
98,104
98,106
98,118
99,104
99,105
100,103
100,104
100,107
101,102
101,103
101,104
101,108
101,113
102,109
103,109
104,109
104,110
104,111
105,197
105,223
106,156
107,109
107,111
107,112
107,113
108,109
109,114
109,115
109,116
110,127
111,114
111,115
112,114
112,115
112,116
112,118
113,114
113,115
113,116
113,117
114,142
115,119
115,121
115,122
116,120
117,119
117,124
118,187
119,125
119,126
120,127
120,137
120,162
121,123
121,124
121,125
121,126
122,124
122,149
123,127
123,128
123,130
124,129
125,127
125,128
125,136
125,137
126,127
126,128
126,129
127,131
127,134
127,135
127,153
128,131
128,132
129,148
129,177
130,131
130,132
130,133
130,135
130,136
130,137
131,139
131,156
132,138
132,140
133,138
134,158
135,155
135,161
136,138
136,144
136,164
137,144
137,165
138,176
138,178
138,180
139,143
139,167
140,141
140,142
141,144
142,145
142,146
143,147
143,158
144,151
144,153
144,163
145,150
145,168
146,148
146,149
146,150
146,152
147,160
147,169
148,156
148,172
149,157
150,155
151,154
152,154
152,155
153,205
154,158
154,160
155,158
156,158
157,159
157,161
157,162
158,171
158,180
159,163
160,168
161,164
161,171
162,163
163,166
163,167
164,165
165,178
166,168
166,169
167,169
167,182
168,170
168,171
168,172
168,173
169,172
170,177
170,179
170,182
171,174
171,176
171,178
172,174
172,175
173,178
174,179
174,186
175,179
175,190
176,179
176,181
176,182
177,180
177,205
177,212
178,179
179,183
179,184
179,185
179,191
180,195
180,216
181,186
181,228
182,187
182,206
183,188
183,189
184,225
184,227
185,241
186,190
186,206
186,227
187,191
189,192
189,194
189,195
190,234
191,193
191,194
192,197
192,201
193,196
193,197
193,200
194,196
195,198
195,199
196,202
196,218
197,224
197,237
198,210
199,204
199,215
200,203
200,214
200,217
201,202
201,205
201,206
202,211
203,207
203,208
203,218
204,209
205,209
206,207
206,208
207,210
207,212
207,216
208,215
208,216
208,224
209,211
209,213
209,214
210,220
210,241
211,219
211,225
212,222
212,233
213,217
213,218
214,223
214,240
216,250
217,221
217,224
217,225
218,219
218,220
218,222
218,223
219,227
219,228
220,226
221,228
222,229
222,242
222,245
223,246
224,229
224,230
224,231
225,226
225,231
226,232
226,234
229,235
231,233
232,238
233,236
234,237
235,238
236,239
238,240
239,241
239,242
239,245
240,243
240,244
241,249
242,250
243,246
243,247
245,248

<end>
